8
0, 310, 476, 862, 440, 493, 627, 288
310, 0, 480, 553, 308, 237, 634, 362
476, 480, 0, 797, 778, 709, 159, 189
862, 553, 797, 0, 671, 484, 887, 803
440, 308, 778, 671, 0, 187, 935, 631
493, 237, 709, 484, 187, 0, 857, 599
627, 634, 159, 887, 935, 857, 0, 340
288, 362, 189, 803, 631, 599, 340, 0
